GLPSOL--GLPK LP/MIP Solver 5.0
Parameter(s) specified in the command line:
 --lp ../modeles/20_24.lp --log 20_24.log
Reading problem data from '../modeles/20_24.lp'...
561 rows, 1000 columns, 3420 non-zeros
480 integer variables, all of which are binary
1587 lines were read
GLPK Integer Optimizer 5.0
561 rows, 1000 columns, 3420 non-zeros
480 integer variables, all of which are binary
Preprocessing...
440 constraint coefficient(s) were reduced
561 rows, 980 columns, 3400 non-zeros
480 integer variables, all of which are binary
Scaling...
 A: min|aij| =  2.778e-02  max|aij| =  4.000e+00  ratio =  1.440e+02
GM: min|aij| =  2.887e-01  max|aij| =  3.464e+00  ratio =  1.200e+01
EQ: min|aij| =  8.333e-02  max|aij| =  1.000e+00  ratio =  1.200e+01
2N: min|aij| =  5.556e-02  max|aij| =  1.440e+00  ratio =  2.592e+01
Constructing initial basis...
Size of triangular part is 561
Solving LP relaxation...
GLPK Simplex Optimizer 5.0
561 rows, 980 columns, 3400 non-zeros
      0: obj =   4.000000000e+01 inf =   9.950e+01 (41)
    139: obj =  -4.222222222e+00 inf =   0.000e+00 (0)
*   168: obj =  -4.222222222e+00 inf =   0.000e+00 (0)
OPTIMAL LP SOLUTION FOUND
Integer optimization begins...
Long-step dual simplex will be used
+   168: mip =     not found yet >=              -inf        (1; 0)
+   183: >>>>>  -4.222222222e+00 >=  -4.222222222e+00 < 0.1% (11; 0)
+   183: mip =  -4.222222222e+00 >=     tree is empty   0.0% (0; 21)
INTEGER OPTIMAL SOLUTION FOUND
Time used:   0.0 secs
Memory used: 1.5 Mb (1575676 bytes)
